c description: Random 3-CNF over 16 variables and 48 clauses
p cnf 16 48
-2 -7 12 0
5 10 12 0
-8 9 15 0
10 11 -14 0
10 15 -16 0
-3 -6 8 0
-2 -6 -16 0
-8 -11 16 0
1 -5 -8 0
3 7 -16 0
-1 -3 16 0
-5 -7 8 0
5 -13 16 0
3 7 10 0
-6 11 -13 0
-4 -11 12 0
-5 -12 15 0
-3 -4 -9 0
-3 6 9 0
1 -2 -15 0
3 6 -13 0
3 6 -9 0
2 3 -10 0
7 -11 12 0
9 12 15 0
-1 8 -15 0
1 -7 -8 0
1 6 -15 0
-2 10 -11 0
-5 8 -11 0
6 7 -11 0
8 10 -16 0
4 6 -15 0
2 10 -12 0
1 -5 7 0
-2 -8 15 0
4 -13 -15 0
-4 12 -14 0
-1 -8 15 0
-5 8 -14 0
5 6 7 0
-1 3 -4 0
-1 -5 -11 0
1 -5 -14 0
7 12 15 0
-2 -5 9 0
-4 -9 -15 0
-2 9 -12 0